(set-logic QF_S)
(declare-fun _var_0xINPUT_181062_() String)
(declare-fun __woorpje_diseq_pref0_() String)
(declare-fun __woorpje_diseq_suf_l0_() String)
(declare-fun __woorpje_diseq_suf_r0_() String)
(assert (=(str.++  "8g9JFHEy8A" "")(str.++ __woorpje_diseq_pref0_  "E" __woorpje_diseq_suf_l0_  "")) )
(assert (=(str.++ _var_0xINPUT_181062_  "")(str.++ __woorpje_diseq_pref0_  "A" __woorpje_diseq_suf_r0_  "")) )
(check-sat)
